1 1 2 0
1 -1 3 0
1 -4 5 0
1 -3 -6 0
1 7 -8 0
1 7 -9 0
1 7 -10 0
1 2 11 0
1 -2 12 0
1 2 1 0
1 -13 12 0
1 13 14 0
1 9 -3 0
1 9 15 0
1 -5 -16 0
1 17 -18 0
1 15 10 0
1 -15 19 0
1 -20 21 0
1 -20 10 0
1 -22 -23 0
1 -24 23 0
1 25 -26 0
1 -26 -27 0
1 -26 28 0
1 29 28 0
1 -30 31 0
1 -30 32 0
1 33 -34 0
1 -33 35 0
1 -33 -36 0
1 33 37 0
1 31 -38 0
1 -39 34 0
1 39 -40 0
1 40 -14 0
1 -41 42 0
1 43 -22 0
1 43 7 0
1 -11 44 0
1 45 -46 0
1 -47 -48 0
1 47 6 0
1 -47 45 0
1 -47 -40 0
1 -49 -16 0
1 -49 -50 0
1 50 -16 0
1 -50 51 0
1 -44 52 0
1 16 -29 0
1 19 49 0
1 6 53 0
1 8 54 0
1 -8 28 0
1 55 -56 0
1 57 -23 0
1 57 58 0
1 -59 60 0
1 -61 -62 0
1 -61 -63 0
1 60 64 0
1 60 65 0
1 -66 61 0
1 -67 -65 0
1 68 69 0
1 -70 71 0
1 -32 -72 0
1 -73 -38 0
1 -73 32 0
1 73 74 0
1 -38 -75 0
1 -74 -31 0
1 76 -77 0
1 -76 78 0
1 -79 80 0
1 78 81 0
1 75 38 0
1 -75 -32 0
1 75 74 0
1 42 -48 0
1 42 82 0
1 -48 -83 0
1 48 84 0
1 77 -42 0
1 84 -77 0
1 84 74 0
1 -85 -86 0
1 -85 -80 0
1 85 -74 0
1 -87 -44 0
1 -87 -88 0
1 -89 86 0
1 -89 40 0
1 -90 -77 0
1 -90 91 0
1 -90 -92 0
1 90 -46 0
1 -93 -94 0
1 -93 84 0
1 93 35 0
1 91 87 0
1 -35 -95 0
1 -83 -96 0
1 97 96 0
1 -98 99 0
1 -58 50 0
1 -100 101 0
1 -56 -102 0
1 99 103 0
1 99 -104 0
1 102 40 0
1 105 -106 0
1 105 101 0
1 105 -6 0
1 -105 -55 0
1 64 65 0
1 -64 107 0
1 51 -108 0
1 51 109 0
1 -110 -44 0
1 111 -105 0
1 -108 112 0
1 108 -61 0
1 -113 -114 0
1 113 -115 0
1 112 109 0
1 -107 65 0
1 107 116 0
1 117 -118 0
1 117 -119 0
1 120 -54 0
1 -120 115 0
1 121 -119 0
1 -115 121 0
1 115 122 0
1 -115 -120 0
1 118 -123 0
1 -118 -124 0
1 125 -113 0
1 125 121 0
1 125 126 0
1 122 118 0
1 127 -121 0
1 -128 69 0
1 129 -130 0
1 -131 120 0
1 88 78 0
1 -88 79 0
1 132 133 0
1 -132 92 0
1 132 81 0
1 132 -85 0
1 -134 73 0
1 -134 -96 0
1 133 -92 0
1 -133 -135 0
1 -136 86 0
1 -136 -88 0
1 137 84 0
1 -137 -135 0
1 -135 138 0
1 135 -84 0
1 135 134 0
1 96 56 0
1 138 -139 0
1 -138 -140 0
1 -141 135 0
1 -95 -83 0
1 95 -142 0
1 -143 144 0
1 143 145 0
1 -144 94 0
1 -142 -114 0
1 142 -139 0
1 -142 84 0
1 -142 -146 0
1 -142 96 0
1 -147 -148 0
1 147 149 0
1 -150 -108 0
1 150 151 0
1 -150 -99 0
1 150 102 0
1 -146 152 0
1 146 150 0
1 -146 -151 0
1 -146 153 0
1 114 -142 0
1 -154 155 0
1 -151 -156 0
1 151 144 0
1 155 -150 0
1 -157 158 0
1 -157 -114 0
1 157 97 0
1 157 -146 0
1 159 -160 0
1 159 111 0
1 109 126 0
1 -161 -104 0
1 161 -112 0
1 -161 120 0
1 162 -104 0
1 -162 163 0
1 -162 -164 0
1 -162 107 0
1 104 165 0
1 104 -154 0
1 166 -167 0
1 -116 168 0
1 -165 -169 0
1 -165 -107 0
1 170 171 0
1 -170 -164 0
1 164 168 0
1 -169 170 0
1 172 141 0
1 -153 -173 0
1 -153 -148 0
1 -174 172 0
1 -149 -175 0
1 149 109 0
1 149 -176 0
1 177 -178 0
1 177 176 0
1 179 180 0
1 -179 155 0
1 176 158 0
1 -181 171 0
1 -167 181 0
1 182 183 0
1 182 171 0
1 -182 184 0
1 171 180 0
1 180 -182 0
1 183 167 0
